(set-info :smt-lib-version 2.6)
(set-logic UFNIRA)
(set-info :source |
Generated by: Geoff Sutcliffe
Generated on: 2026-03-11
Generator: TPTPWorld
Application: Benchmarking automated theorem provers
Time limit: 120.0

These benchmarks are translations from the TPTP Library (Thousands of
Problems for Theorem Provers), see http://www.cs.miami.edu/~tptp/

The TPTP is maintained by Geoff Sutcliffe, and he contributed this
selection of benchmarks to SMT-LIB.  They were exported from the
v9.2.1 realease of TPTP.
|)
(set-info :category "industrial")
(set-info :status "unknown")
; SZS status Success
(declare-sort $$unsorted 0)
(declare-fun tptp.imp (Int) Real)
(declare-fun tptp.recexp (Int) Real)
(declare-fun tptp.mysumlk (Int) Int)
(declare-fun tptp.mysumdlow (Int Int) Real)
(declare-fun tptp.mysumr (Int Int) Real)
(declare-fun tptp.lksum (Int) Int)
(declare-fun tptp.problen () Int)
(declare-fun tptp.probsize () Int)
(declare-fun tptp.lk (Int) Int)
(declare-fun tptp.d (Int) Real)
(declare-fun tptp.c0 () Int)
(assert (not (=> (<= (to_real tptp.probsize) (tptp.recexp tptp.c0)) (<= (tptp.d 1) 1.0))))
(assert (<= 2 tptp.problen))
(assert (<= (* tptp.problen tptp.problen) tptp.probsize))
(assert (and (<= 0 tptp.c0) (<= (* 2 tptp.c0) tptp.problen)))
(assert (<= 1 (tptp.lk 0)))
(assert (forall ((K Int)) (=> (and (<= 1 K) (<= K tptp.problen)) (<= (tptp.lk (- K 1)) (tptp.lk K)))))
(assert (let ((_let_1 (tptp.d 1))) (and (= (tptp.d 0) _let_1) (<= (/ 1 2) _let_1))))
(assert (forall ((K Int)) (=> (and (<= 1 K) (<= K tptp.c0)) (<= (tptp.d K) (tptp.d (- K 1))))))
(assert (forall ((K Int)) (=> (and (<= 2 K) (<= K tptp.c0)) (= (tptp.d K) 1.0))))
(assert (forall ((C Int)) (= (tptp.mysumdlow 1 C) (* (tptp.d 1) (to_real (tptp.lk (- C 1)))))))
(assert (forall ((K Int) (C Int)) (=> (and (<= 2 K) (<= K C)) (= (tptp.mysumdlow K C) (+ (tptp.mysumdlow (- K 1) C) (* (tptp.d K) (to_real (tptp.lk (- C K)))))))))
(assert (= (tptp.imp 0) 0.0))
(assert (forall ((C Int)) (=> (<= 1 C) (= (* (to_real tptp.probsize) (tptp.imp C)) (tptp.mysumdlow C C)))))
(assert (= (tptp.recexp 0) 0.0))
(assert (forall ((C Int)) (let ((_let_1 (to_real tptp.probsize))) (=> (<= 1 C) (= (* (tptp.imp C) (* _let_1 (tptp.recexp C))) (+ _let_1 (tptp.mysumr C C)))))))
(assert (= (tptp.mysumlk 0) (tptp.lk 0)))
(assert (forall ((K Int)) (=> (and (<= 1 K) (<= K tptp.problen)) (= (tptp.mysumlk K) (+ (tptp.lk K) (tptp.mysumlk (- K 1)))))))
(assert (<= (* (to_real (tptp.mysumlk tptp.problen)) (tptp.d 1)) (to_real tptp.probsize)))
(assert (forall ((C Int)) (= (tptp.mysumr 1 C) (* (tptp.d 1) (to_real (tptp.lk (- C 1)))))))
(assert (forall ((C Int) (K Int)) (let ((_let_1 (- C K))) (=> (and (<= 2 K) (<= K C)) (= (tptp.mysumr K C) (+ (* (tptp.d K) (* (tptp.recexp _let_1) (to_real (tptp.lk _let_1)))) (tptp.mysumr (- K 1) C)))))))
(check-sat)
